
Gurobi 11.0.1 (win64) logging started Mon May 13 15:45:35 2024

Set parameter LogFile to value "output/solver_log37.txt"
Gurobi Optimizer version 11.0.1 build v11.0.1rc0 (win64 - Windows 11.0 (22631.2))

CPU model: 11th Gen Intel(R) Core(TM) i7-1165G7 @ 2.80GHz, instruction set [SSE2|AVX|AVX2|AVX512]
Thread count: 4 physical cores, 8 logical processors, using up to 8 threads

Optimize a model with 2219 rows, 434 columns and 40895 nonzeros
Model fingerprint: 0xff3edc96
Variable types: 248 continuous, 186 integer (186 binary)
Coefficient statistics:
  Matrix range     [4e-01, 1e+05]
  Objective range  [1e+00, 1e+02]
  Bounds range     [1e+00, 1e+00]
  RHS range        [1e-02, 1e+05]

User MIP start produced solution with objective 78060.6 (0.00s)
User MIP start produced solution with objective 78060.6 (0.00s)
Loaded user MIP start with objective 78060.6

Presolve removed 124 rows and 122 columns
Presolve time: 0.05s
Presolved: 2095 rows, 312 columns, 40260 nonzeros
Variable types: 227 continuous, 85 integer (85 binary)

Root relaxation: cutoff, 12 iterations, 0.01 seconds (0.01 work units)

    Nodes    |    Current Node    |     Objective Bounds      |     Work
 Expl Unexpl |  Obj  Depth IntInf | Incumbent    BestBd   Gap | It/Node Time

     0     0     cutoff    0      78060.6326 78060.6326  0.00%     -    0s

Explored 1 nodes (12 simplex iterations) in 0.10 seconds (0.18 work units)
Thread count was 8 (of 8 available processors)

Solution count 2: 78060.6 78060.6 

Optimal solution found (tolerance 1.00e-04)
Best objective 7.806063259032e+04, best bound 7.806063259032e+04, gap 0.0000%
